15,9	0,0	14,0	6,7	0,0	0,0	0,0	0,0	0,0	8,4
16,6	16,7	0,0	14,6	16,6	0,0	0,0	17,9	0,0	0,0
0,0	0,0	14,3	0,0	8,3	7,7	0,0	0,0	6,9	0,0
5,3	0,0	14,8	0,0	0,0	0,0	7,8	0,0	0,0	0,0
0,0	9,7	0,0	19,1	13,7	0,0	0,0	14,3	0,0	0,0
0,0	14,6	16,5	0,0	8,2	9,7	0,0	0,0	9,8	0,0
0,0	7,8	0,0	11,3	0,0	0,0	5,8	0,0	0,0	7,1
7,1	0,0	11,4	0,0	0,0	0,0	0,0	0,0	0,0	11,2
0,0	13,3	0,0	14,5	14,5	0,0	0,0	12,8	0,0	0,0
0,0	0,0	15,0	0,0	0,0	9,4	15,6	0,0	0,0	19,4
									
4,8	3,3	3,3	3,2	4,9	4,5	4,3	2,6	3,9	2,6
